3 15
455 274 446 
0 68 35 44 54 29 72 66 17 64 75 38 27 1
1 88 100 97 34 13 77 28 31 38 92 69 28 3
2 90 74 98 44 99 15 57 49 57 47 18 25 1
3 6 51 82 5 67 52 11 58 40 68 74 9 1
4 43 68 12 18 88 69 26 84 4 17 92 29 3
5 99 81 99 36 8 82 96 35 3 51 77 95 3
6 19 93 68 19 16 46 36 71 51 38 31 28 3
7 69 63 10 2 42 48 36 63 73 38 32 4 3
8 28 29 81 95 33 70 72 23 100 44 65 84 1
9 48 70 9 24 77 71 43 94 60 94 99 77 2
10 33 27 17 66 10 12 69 14 89 81 77 88 1
11 29 63 1 73 74 84 82 80 7 71 57 36 2
12 89 52 49 2 10 45 24 12 60 83 58 16 2
13 24 68 72 14 13 53 58 82 82 17 18 91 3
14 49 36 13 63 86 97 9 70 64 43 84 33 1
